Simulation finished,  1 warnings
WARNING: INAPPROPRIATE NUMBER OF UNIT CELLS USED

simulation Input 
SimulationType                MonteCarlo
NumberOfCycles                500000
NumberOfInitializationCycles  50000
PrintEvery                    100
PrintPropertiesEvery	      100
RestartFile                   no

CutOffVDW			12.0
CutOffChargeCharge		12.0
CutOffChargeBondDipole		12.0
CutOffBondDipoleBondDipole	12.0

Forcefield                    
UseChargesFromCIFFile         no 

Framework 0
FrameworkName 001-IDIWOH-CONVCELL-relabel
UnitCells 1 1 1
HeliumVoidFraction 0.29
ExternalTemperature 298.0
ExternalPressure 1e+05 2e+05 3e+05 4e+05 5e+05 6e+05 7e+05 8e+05 9e+05

Component 0 MoleculeName             methane
            MoleculeDefinition       
            TranslationProbability   0.5
            RotationProbability      0.5
            ReinsertionProbability   0.0
            SwapProbability          1.0
            CreateNumberOfMolecules  0
